p wcnf 133 200 201 
1 112 -113 0 
1 -46 -21 0 
1 -61 -63 0 
1 -76 117 0 
1 -91 13 0 
1 -65 120 0 
1 -1 130 0 
1 -2 72 0 
1 -132 88 0 
1 123 -122 0 
1 -20 -74 0 
1 116 -96 0 
1 16 -127 0 
1 -39 101 0 
1 23 -36 0 
1 -71 -34 0 
1 -20 -88 0 
1 53 51 0 
1 95 125 0 
1 131 119 0 
1 -56 -82 0 
1 47 6 0 
1 14 -121 0 
1 -92 -70 0 
1 -64 130 0 
1 16 -93 0 
1 11 31 0 
1 -69 -27 0 
1 94 -97 0 
1 -77 30 0 
1 91 4 0 
1 22 -109 0 
1 -44 -33 0 
1 -112 -115 0 
1 -90 -43 0 
1 132 -89 0 
1 -51 -131 0 
1 26 18 0 
1 15 104 0 
1 69 51 0 
1 129 2 0 
1 -90 9 0 
1 94 7 0 
1 90 -71 0 
1 22 -87 0 
1 32 -104 0 
1 -6 -28 0 
1 39 80 0 
1 52 87 0 
1 -92 -9 0 
1 113 -10 0 
1 98 38 0 
1 19 -3 0 
1 -96 42 0 
1 6 -85 0 
1 -107 88 0 
1 -112 -60 0 
1 -71 119 0 
1 41 30 0 
1 56 -58 0 
1 89 -55 0 
1 -79 100 0 
1 62 -124 0 
1 113 61 0 
1 -2 -60 0 
1 113 3 0 
1 -20 -39 0 
1 -61 -76 0 
1 -11 -95 0 
1 63 -1 0 
1 -118 -54 0 
1 114 88 0 
1 -88 75 0 
1 46 -10 0 
1 -130 126 0 
1 2 121 0 
1 71 90 0 
1 3 -39 0 
1 80 70 0 
1 -51 -111 0 
1 97 70 0 
1 -130 133 0 
1 -48 76 0 
1 -30 105 0 
1 40 -120 0 
1 -2 -125 0 
1 29 -24 0 
1 91 42 0 
1 124 -89 0 
1 74 72 0 
1 119 33 0 
1 2 73 0 
1 -103 84 0 
1 -38 -92 0 
1 -44 70 0 
1 67 6 0 
1 -95 -36 0 
1 -87 -108 0 
1 103 -36 0 
1 -51 63 0 
1 -9 40 0 
1 -132 8 0 
1 -50 -51 0 
1 39 -52 0 
1 -24 -56 0 
1 63 -56 0 
1 -6 57 0 
1 -21 -110 0 
1 -51 -6 0 
1 -101 -83 0 
1 -89 -16 0 
1 18 117 0 
1 48 113 0 
1 -25 45 0 
1 -48 58 0 
1 -116 -25 0 
1 28 -112 0 
1 -75 68 0 
1 -111 -63 0 
1 97 -61 0 
1 -77 116 0 
1 -125 79 0 
1 -99 -104 0 
1 33 41 0 
1 57 -21 0 
1 101 -15 0 
1 130 -31 0 
1 59 -6 0 
1 109 -105 0 
1 54 -112 0 
1 -5 -27 0 
1 -35 89 0 
1 20 -39 0 
1 -61 120 0 
1 -65 -57 0 
1 -97 95 0 
1 24 -5 0 
1 103 -73 0 
1 -117 1 0 
1 -11 -107 0 
1 -98 -52 0 
1 54 -48 0 
1 71 -12 0 
1 -43 52 0 
1 81 33 0 
1 -10 132 0 
1 13 -23 0 
1 -106 -44 0 
1 80 49 0 
1 -34 105 0 
1 122 -90 0 
1 -107 65 0 
1 -43 -47 0 
1 91 -51 0 
1 -6 -55 0 
1 -70 -63 0 
1 83 119 0 
1 122 87 0 
1 22 -57 0 
1 119 -110 0 
1 -73 -21 0 
1 87 -22 0 
1 -64 90 0 
1 -113 33 0 
1 -27 93 0 
1 58 90 0 
1 7 -120 0 
1 -44 35 0 
1 -130 -129 0 
1 67 17 0 
1 -122 99 0 
1 28 -9 0 
1 99 -74 0 
1 -35 61 0 
1 17 -2 0 
1 48 98 0 
1 -99 38 0 
1 94 133 0 
1 6 -33 0 
1 -123 -129 0 
1 -133 123 0 
1 30 -128 0 
1 21 -82 0 
1 25 89 0 
1 33 10 0 
1 -45 -94 0 
1 -1 74 0 
1 88 -100 0 
1 44 117 0 
1 -55 -84 0 
1 109 122 0 
1 26 18 0 
1 -130 -24 0 
1 76 77 0 
1 3 62 0 
1 -54 -67 0 
1 26 -120 0 
1 85 9 0 
1 96 -37 0 
1 -131 -116 0 
